p cnf 7230 16
-1240 -1324 1325 0
678 1053 -1322 0
674 1056 -1320 0
668 1062 -1318 0
1240 -1326 0
-678 -1323 0
-674 -1321 0
-668 -1319 0
-1325 1326 0
1322 1323 0
1320 1321 0
1318 1319 0
1324 -1326 0
-1053 -1323 0
-1056 -1321 0
-1062 -1319 0
